; benchmark generated from python API
(set-info :status unknown)
(declare-fun x_months () (_ BitVec 32))
(declare-fun x_beta () (_ BitVec 32))
(assert
 (bvsle (_ bv4294966096 32) x_months))
(assert
 (bvsge (_ bv1199 32) x_months))
(assert
 (bvsle (_ bv0 32) x_beta))
(assert
 (let ((?x36644 (bvadd x_months (_ bv24003 32))))
 (let ((?x28073 (bvsub ?x36644 (bvmul (bvsdiv (bvsub ?x36644 (_ bv1 32)) (_ bv12 32)) (_ bv12 32)))))
 (let ((?x4273 (ite (or (= ?x28073 (_ bv4 32)) (= ?x28073 (_ bv6 32)) (= ?x28073 (_ bv9 32)) (= ?x28073 (_ bv11 32))) (_ bv30 32) (_ bv31 32))))
 (let (($x65675 (and (= (bvsmod (bvsdiv (bvsub ?x36644 (_ bv1 32)) (_ bv12 32)) (_ bv4 32)) (_ bv0 32)) (and (distinct (bvsmod (bvsdiv (bvsub ?x36644 (_ bv1 32)) (_ bv12 32)) (_ bv100 32)) (_ bv0 32)) true))))
 (let ((?x27298 (ite (or $x65675 (= (bvsmod (bvsdiv (bvsub ?x36644 (_ bv1 32)) (_ bv12 32)) (_ bv400 32)) (_ bv0 32))) (_ bv29 32) (_ bv28 32))))
 (bvslt x_beta (ite (= ?x28073 (_ bv2 32)) ?x27298 ?x4273))))))))
(assert
 (let (($x75689 (bvsle (_ bv0 32) x_beta)))
 (or (bvsgt x_months (bvsub (bvadd (bvmul (_ bv2020 32) (_ bv12 32)) (_ bv1 32)) (_ bv24003 32))) (and (= x_months (bvsub (bvadd (bvmul (_ bv2020 32) (_ bv12 32)) (_ bv1 32)) (_ bv24003 32))) $x75689))))
(assert
 (let (($x21100 (and (= x_months (bvsub (bvadd (bvmul (_ bv2020 32) (_ bv12 32)) (_ bv2 32)) (_ bv24003 32))) (bvsge (_ bv27 32) x_beta))))
 (or (bvslt x_months (bvsub (bvadd (bvmul (_ bv2020 32) (_ bv12 32)) (_ bv2 32)) (_ bv24003 32))) $x21100)))
(assert
 (let ((?x8818 (bvadd x_beta (_ bv1 32))))
(let ((?x61606 (bvsdiv (bvsub (bvadd (bvadd x_months (_ bv0 32)) (_ bv24003 32)) (_ bv1 32)) (_ bv12 32))))
(let ((?x85692 (bvadd (bvadd x_months (_ bv0 32)) (_ bv24003 32))))
(let ((?x42477 (bvsub ?x85692 (bvmul ?x61606 (_ bv12 32)))))
(let ((?x80087 (ite (or (= ?x42477 (_ bv4 32)) (= ?x42477 (_ bv6 32)) (= ?x42477 (_ bv9 32)) (= ?x42477 (_ bv11 32))) (_ bv30 32) (_ bv31 32))))
(let (($x22486 (or (and (= (bvsmod ?x61606 (_ bv4 32)) (_ bv0 32)) (and (distinct (bvsmod ?x61606 (_ bv100 32)) (_ bv0 32)) true)) (= (bvsmod ?x61606 (_ bv400 32)) (_ bv0 32)))))
(let ((?x20024 (ite (= ?x42477 (_ bv2 32)) (ite $x22486 (_ bv29 32) (_ bv28 32)) ?x80087)))
(let (($x15373 (bvsgt (_ bv1 32) ?x8818)))
(let ((?x9008 (ite $x15373 (_ bv1 32) (ite (bvsgt ?x8818 ?x20024) ?x20024 ?x8818))))
(let ((?x68483 (ite (bvsgt (_ bv1 32) ?x9008) (_ bv1 32) (ite (bvsgt ?x9008 ?x20024) ?x20024 ?x9008))))
(let ((?x23167 (ite (= (_ bv2 32) ?x42477) (ite $x22486 (_ bv31 32) (_ bv31 32)) (ite (= (_ bv1 32) ?x42477) (ite $x22486 (_ bv0 32) (_ bv0 32)) (_ bv0 32)))))
(let ((?x58434 (ite (= (_ bv4 32) ?x42477) (ite $x22486 (_ bv91 32) (_ bv90 32)) (ite (= (_ bv3 32) ?x42477) (ite $x22486 (_ bv60 32) (_ bv59 32)) ?x23167))))
(let ((?x84525 (ite (= (_ bv6 32) ?x42477) (ite $x22486 (_ bv152 32) (_ bv151 32)) (ite (= (_ bv5 32) ?x42477) (ite $x22486 (_ bv121 32) (_ bv120 32)) ?x58434))))
(let ((?x70886 (ite (= (_ bv8 32) ?x42477) (ite $x22486 (_ bv213 32) (_ bv212 32)) (ite (= (_ bv7 32) ?x42477) (ite $x22486 (_ bv182 32) (_ bv181 32)) ?x84525))))
(let ((?x13201 (ite (= (_ bv10 32) ?x42477) (ite $x22486 (_ bv274 32) (_ bv273 32)) (ite (= (_ bv9 32) ?x42477) (ite $x22486 (_ bv244 32) (_ bv243 32)) ?x70886))))
(let ((?x61430 (ite (= (_ bv12 32) ?x42477) (ite $x22486 (_ bv335 32) (_ bv334 32)) (ite (= (_ bv11 32) ?x42477) (ite $x22486 (_ bv305 32) (_ bv304 32)) ?x13201))))
(let ((?x61522 (bvadd (bvmul (_ bv365 32) (bvsub ?x61606 (_ bv1 32))) (bvsdiv (bvsub ?x61606 (_ bv1 32)) (_ bv4 32)))))
(let ((?x14438 (bvadd (bvsub ?x61522 (bvsdiv (bvsub ?x61606 (_ bv1 32)) (_ bv100 32))) (bvsdiv (bvsub ?x61606 (_ bv1 32)) (_ bv400 32)))))
(let ((?x1901 (bvadd (bvadd (bvsub (bvadd (bvadd ?x14438 ?x61430) (bvsub ?x68483 (_ bv1 32))) (_ bv730179 32)) (_ bv365 32)) (_ bv730179 32))))
(let ((?x83430 (bvsmod ?x1901 (_ bv146097 32))))
(let ((?x46741 (bvsdiv ?x83430 (_ bv36524 32))))
(let ((?x42751 (ite (bvsle (_ bv4 32) ?x46741) (_ bv3 32) ?x46741)))
(let ((?x69127 (bvsub ?x83430 (bvmul ?x42751 (_ bv36524 32)))))
(let ((?x40704 (bvsmod ?x69127 (_ bv1461 32))))
(let ((?x61497 (bvsdiv ?x40704 (_ bv365 32))))
(let ((?x33348 (ite (bvsle (_ bv4 32) ?x61497) (_ bv3 32) ?x61497)))
(let ((?x83761 (bvadd (bvadd (bvmul (bvsdiv ?x1901 (_ bv146097 32)) (_ bv400 32)) (bvmul ?x42751 (_ bv100 32))) (bvmul (bvsdiv ?x69127 (_ bv1461 32)) (_ bv4 32)))))
(let ((?x34456 (bvadd (bvadd ?x83761 ?x33348) (_ bv1 32))))
(let (($x50437 (or (and (= (bvsmod ?x34456 (_ bv4 32)) (_ bv0 32)) (and (distinct (bvsmod ?x34456 (_ bv100 32)) (_ bv0 32)) true)) (= (bvsmod ?x34456 (_ bv400 32)) (_ bv0 32)))))
(let ((?x28592 (bvsub ?x40704 (bvmul ?x33348 (_ bv365 32)))))
(let ((?x83638 (ite $x50437 (_ bv31 32) (_ bv31 32))))
(let (($x22829 (bvsge ?x28592 ?x83638)))
(let ((?x43200 (ite $x22829 (bvadd (bvsub ?x28592 ?x83638) (_ bv1 32)) (bvadd (bvsub ?x28592 (ite $x50437 (_ bv0 32) (_ bv0 32))) (_ bv1 32)))))
(let ((?x19518 (ite $x50437 (_ bv60 32) (_ bv59 32))))
(let (($x13581 (bvsge ?x28592 ?x19518)))
(let ((?x16718 (ite $x50437 (_ bv91 32) (_ bv90 32))))
(let (($x40655 (bvsge ?x28592 ?x16718)))
(let ((?x9396 (ite $x40655 (bvadd (bvsub ?x28592 ?x16718) (_ bv1 32)) (ite $x13581 (bvadd (bvsub ?x28592 ?x19518) (_ bv1 32)) ?x43200))))
(let ((?x16246 (ite $x50437 (_ bv121 32) (_ bv120 32))))
(let (($x63337 (bvsge ?x28592 ?x16246)))
(let ((?x80228 (ite $x50437 (_ bv152 32) (_ bv151 32))))
(let (($x17122 (bvsge ?x28592 ?x80228)))
(let ((?x8522 (ite $x17122 (bvadd (bvsub ?x28592 ?x80228) (_ bv1 32)) (ite $x63337 (bvadd (bvsub ?x28592 ?x16246) (_ bv1 32)) ?x9396))))
(let ((?x83667 (ite $x50437 (_ bv182 32) (_ bv181 32))))
(let (($x84167 (bvsge ?x28592 ?x83667)))
(let ((?x86703 (ite $x50437 (_ bv213 32) (_ bv212 32))))
(let (($x36266 (bvsge ?x28592 ?x86703)))
(let ((?x18086 (ite $x36266 (bvadd (bvsub ?x28592 ?x86703) (_ bv1 32)) (ite $x84167 (bvadd (bvsub ?x28592 ?x83667) (_ bv1 32)) ?x8522))))
(let ((?x84578 (ite $x50437 (_ bv244 32) (_ bv243 32))))
(let (($x37745 (bvsge ?x28592 ?x84578)))
(let ((?x15089 (ite $x50437 (_ bv274 32) (_ bv273 32))))
(let (($x83634 (bvsge ?x28592 ?x15089)))
(let ((?x23923 (ite $x83634 (bvadd (bvsub ?x28592 ?x15089) (_ bv1 32)) (ite $x37745 (bvadd (bvsub ?x28592 ?x84578) (_ bv1 32)) ?x18086))))
(let ((?x78232 (ite $x50437 (_ bv305 32) (_ bv304 32))))
(let (($x78490 (bvsge ?x28592 ?x78232)))
(let ((?x8409 (ite $x50437 (_ bv335 32) (_ bv334 32))))
(let (($x4390 (bvsge ?x28592 ?x8409)))
(let ((?x87561 (ite $x4390 (bvadd (bvsub ?x28592 ?x8409) (_ bv1 32)) (ite $x78490 (bvadd (bvsub ?x28592 ?x78232) (_ bv1 32)) ?x23923))))
(let (($x49925 (= (_ bv365 32) (_ bv0 32))))
(let ((?x985 (bvsdiv (bvsub (bvadd (bvadd x_months (_ bv12 32)) (_ bv24003 32)) (_ bv1 32)) (_ bv12 32))))
(let ((?x41397 (bvadd (bvadd x_months (_ bv12 32)) (_ bv24003 32))))
(let ((?x88130 (bvsub ?x41397 (bvmul ?x985 (_ bv12 32)))))
(let ((?x77051 (ite (or (= ?x88130 (_ bv4 32)) (= ?x88130 (_ bv6 32)) (= ?x88130 (_ bv9 32)) (= ?x88130 (_ bv11 32))) (_ bv30 32) (_ bv31 32))))
(let (($x53537 (or (and (= (bvsmod ?x985 (_ bv4 32)) (_ bv0 32)) (and (distinct (bvsmod ?x985 (_ bv100 32)) (_ bv0 32)) true)) (= (bvsmod ?x985 (_ bv400 32)) (_ bv0 32)))))
(let ((?x77689 (ite (= ?x88130 (_ bv2 32)) (ite $x53537 (_ bv29 32) (_ bv28 32)) ?x77051)))
(let ((?x13488 (ite $x15373 (_ bv1 32) (ite (bvsgt ?x8818 ?x77689) ?x77689 ?x8818))))
(let ((?x83985 (ite (bvsgt (_ bv1 32) ?x13488) (_ bv1 32) (ite (bvsgt ?x13488 ?x77689) ?x77689 ?x13488))))
(let ((?x44339 (ite (= (_ bv2 32) ?x88130) (ite $x53537 (_ bv31 32) (_ bv31 32)) (ite (= (_ bv1 32) ?x88130) (ite $x53537 (_ bv0 32) (_ bv0 32)) (_ bv0 32)))))
(let ((?x84170 (ite (= (_ bv4 32) ?x88130) (ite $x53537 (_ bv91 32) (_ bv90 32)) (ite (= (_ bv3 32) ?x88130) (ite $x53537 (_ bv60 32) (_ bv59 32)) ?x44339))))
(let ((?x63237 (ite (= (_ bv6 32) ?x88130) (ite $x53537 (_ bv152 32) (_ bv151 32)) (ite (= (_ bv5 32) ?x88130) (ite $x53537 (_ bv121 32) (_ bv120 32)) ?x84170))))
(let ((?x50170 (ite (= (_ bv8 32) ?x88130) (ite $x53537 (_ bv213 32) (_ bv212 32)) (ite (= (_ bv7 32) ?x88130) (ite $x53537 (_ bv182 32) (_ bv181 32)) ?x63237))))
(let ((?x72394 (ite (= (_ bv10 32) ?x88130) (ite $x53537 (_ bv274 32) (_ bv273 32)) (ite (= (_ bv9 32) ?x88130) (ite $x53537 (_ bv244 32) (_ bv243 32)) ?x50170))))
(let ((?x33761 (ite (= (_ bv12 32) ?x88130) (ite $x53537 (_ bv335 32) (_ bv334 32)) (ite (= (_ bv11 32) ?x88130) (ite $x53537 (_ bv305 32) (_ bv304 32)) ?x72394))))
(let ((?x47118 (bvadd (bvmul (_ bv365 32) (bvsub ?x985 (_ bv1 32))) (bvsdiv (bvsub ?x985 (_ bv1 32)) (_ bv4 32)))))
(let ((?x40400 (bvadd (bvsub ?x47118 (bvsdiv (bvsub ?x985 (_ bv1 32)) (_ bv100 32))) (bvsdiv (bvsub ?x985 (_ bv1 32)) (_ bv400 32)))))
(let ((?x50174 (bvadd (bvadd (bvsub (bvadd (bvadd ?x40400 ?x33761) (bvsub ?x83985 (_ bv1 32))) (_ bv730179 32)) (_ bv0 32)) (_ bv730179 32))))
(let ((?x51217 (bvsmod ?x50174 (_ bv146097 32))))
(let ((?x74616 (bvsdiv ?x51217 (_ bv36524 32))))
(let ((?x62835 (ite (bvsle (_ bv4 32) ?x74616) (_ bv3 32) ?x74616)))
(let ((?x8858 (bvsub ?x51217 (bvmul ?x62835 (_ bv36524 32)))))
(let ((?x59829 (bvsmod ?x8858 (_ bv1461 32))))
(let ((?x43100 (bvsdiv ?x59829 (_ bv365 32))))
(let ((?x30358 (ite (bvsle (_ bv4 32) ?x43100) (_ bv3 32) ?x43100)))
(let ((?x65917 (bvadd (bvadd (bvmul (bvsdiv ?x50174 (_ bv146097 32)) (_ bv400 32)) (bvmul ?x62835 (_ bv100 32))) (bvmul (bvsdiv ?x8858 (_ bv1461 32)) (_ bv4 32)))))
(let ((?x62671 (bvadd (bvadd ?x65917 ?x30358) (_ bv1 32))))
(let (($x13880 (or (and (= (bvsmod ?x62671 (_ bv4 32)) (_ bv0 32)) (and (distinct (bvsmod ?x62671 (_ bv100 32)) (_ bv0 32)) true)) (= (bvsmod ?x62671 (_ bv400 32)) (_ bv0 32)))))
(let ((?x67562 (bvsub ?x59829 (bvmul ?x30358 (_ bv365 32)))))
(let ((?x35369 (ite $x13880 (_ bv31 32) (_ bv31 32))))
(let (($x61635 (bvsge ?x67562 ?x35369)))
(let ((?x1755 (ite $x61635 (bvadd (bvsub ?x67562 ?x35369) (_ bv1 32)) (bvadd (bvsub ?x67562 (ite $x13880 (_ bv0 32) (_ bv0 32))) (_ bv1 32)))))
(let ((?x74190 (ite $x13880 (_ bv60 32) (_ bv59 32))))
(let (($x8736 (bvsge ?x67562 ?x74190)))
(let ((?x24418 (ite $x13880 (_ bv91 32) (_ bv90 32))))
(let (($x45036 (bvsge ?x67562 ?x24418)))
(let ((?x84523 (ite $x45036 (bvadd (bvsub ?x67562 ?x24418) (_ bv1 32)) (ite $x8736 (bvadd (bvsub ?x67562 ?x74190) (_ bv1 32)) ?x1755))))
(let ((?x12613 (ite $x13880 (_ bv121 32) (_ bv120 32))))
(let (($x14524 (bvsge ?x67562 ?x12613)))
(let ((?x7917 (ite $x13880 (_ bv152 32) (_ bv151 32))))
(let (($x36673 (bvsge ?x67562 ?x7917)))
(let ((?x73496 (ite $x36673 (bvadd (bvsub ?x67562 ?x7917) (_ bv1 32)) (ite $x14524 (bvadd (bvsub ?x67562 ?x12613) (_ bv1 32)) ?x84523))))
(let ((?x61610 (ite $x13880 (_ bv182 32) (_ bv181 32))))
(let (($x19942 (bvsge ?x67562 ?x61610)))
(let ((?x84943 (ite $x13880 (_ bv213 32) (_ bv212 32))))
(let (($x7777 (bvsge ?x67562 ?x84943)))
(let ((?x15280 (ite $x7777 (bvadd (bvsub ?x67562 ?x84943) (_ bv1 32)) (ite $x19942 (bvadd (bvsub ?x67562 ?x61610) (_ bv1 32)) ?x73496))))
(let ((?x85826 (ite $x13880 (_ bv244 32) (_ bv243 32))))
(let (($x83620 (bvsge ?x67562 ?x85826)))
(let ((?x84362 (ite $x13880 (_ bv274 32) (_ bv273 32))))
(let (($x59812 (bvsge ?x67562 ?x84362)))
(let ((?x28027 (ite $x59812 (bvadd (bvsub ?x67562 ?x84362) (_ bv1 32)) (ite $x83620 (bvadd (bvsub ?x67562 ?x85826) (_ bv1 32)) ?x15280))))
(let ((?x85742 (ite $x13880 (_ bv305 32) (_ bv304 32))))
(let (($x79875 (bvsge ?x67562 ?x85742)))
(let ((?x20214 (ite $x13880 (_ bv335 32) (_ bv334 32))))
(let (($x84710 (bvsge ?x67562 ?x20214)))
(let ((?x47999 (ite $x84710 (bvadd (bvsub ?x67562 ?x20214) (_ bv1 32)) (ite $x79875 (bvadd (bvsub ?x67562 ?x85742) (_ bv1 32)) ?x28027))))
(let (($x2020 (= (_ bv0 32) (_ bv0 32))))
(let (($x87865 (= (bvsub (ite $x2020 ?x83985 ?x47999) (_ bv1 32)) (bvsub (ite $x49925 ?x68483 ?x87561) (_ bv1 32)))))
(let ((?x67646 (ite $x17122 (_ bv6 32) (ite $x63337 (_ bv5 32) (ite $x40655 (_ bv4 32) (ite $x13581 (_ bv3 32) (ite $x22829 (_ bv2 32) (_ bv1 32))))))))
(let ((?x19268 (ite $x78490 (_ bv11 32) (ite $x83634 (_ bv10 32) (ite $x37745 (_ bv9 32) (ite $x36266 (_ bv8 32) (ite $x84167 (_ bv7 32) ?x67646)))))))
(let ((?x19091 (ite $x4390 (_ bv12 32) ?x19268)))
(let ((?x42865 (bvsub (bvadd (bvmul (ite $x49925 ?x61606 ?x34456) (_ bv12 32)) (ite $x49925 ?x42477 ?x19091)) (_ bv24003 32))))
(let ((?x7705 (ite $x36673 (_ bv6 32) (ite $x14524 (_ bv5 32) (ite $x45036 (_ bv4 32) (ite $x8736 (_ bv3 32) (ite $x61635 (_ bv2 32) (_ bv1 32))))))))
(let ((?x31437 (ite $x79875 (_ bv11 32) (ite $x59812 (_ bv10 32) (ite $x83620 (_ bv9 32) (ite $x7777 (_ bv8 32) (ite $x19942 (_ bv7 32) ?x7705)))))))
(let ((?x6221 (bvadd (bvmul (ite $x2020 ?x985 ?x62671) (_ bv12 32)) (ite $x2020 ?x88130 (ite $x84710 (_ bv12 32) ?x31437)))))
(not (and (= (bvsub ?x6221 (_ bv24003 32)) ?x42865) $x87865)))))))))))))))))))))))))))))))))))))))))))))))))))))))))))))))))))))))))))))))))))))))))))))))))))))))))))))))))))))))))))))))
(check-sat)
